NAME : P112122.40346.tour
COMMENT : Length = 40346
COMMENT : Found by LKH-3 [Keld Helsgaun] Tue Dec 17 14:07:02 2024
TYPE : TOUR
DIMENSION : 140
TOUR_SECTION
1
121
2
122
3
123
4
25
36
124
5
125
6
37
30
60
39
48
59
62
46
47
61
41
49
52
38
24
51
40
43
58
55
57
54
63
44
50
64
53
42
56
45
27
33
126
7
127
8
29
128
9
34
129
10
130
11
102
97
107
100
98
108
109
99
101
117
94
106
104
116
95
110
113
112
119
103
115
114
105
96
118
111
120
131
12
132
13
133
14
134
15
32
135
16
23
22
136
17
137
18
138
19
85
87
72
89
88
77
35
83
65
71
92
82
75
86
90
28
78
66
93
73
79
81
80
91
74
76
69
70
67
68
31
84
139
20
21
26
140
-1
EOF
